p wcnf 159 238 239 
1 -78 -7 0 
1 146 142 0 
1 48 90 0 
1 152 -102 0 
1 91 -147 0 
1 12 87 0 
1 -91 154 0 
1 137 151 0 
1 -37 92 0 
1 -109 99 0 
1 87 103 0 
1 -90 148 0 
1 35 6 0 
1 24 2 0 
1 97 1 0 
1 -49 -39 0 
1 -153 -114 0 
1 97 74 0 
1 -6 -150 0 
1 -100 125 0 
1 35 28 0 
1 14 -5 0 
1 128 99 0 
1 -34 21 0 
1 116 58 0 
1 62 31 0 
1 154 86 0 
1 110 83 0 
1 -144 72 0 
1 79 -85 0 
1 49 -123 0 
1 28 50 0 
1 -159 120 0 
1 -124 -34 0 
1 -105 -43 0 
1 -102 -126 0 
1 47 -67 0 
1 -93 12 0 
1 -129 -151 0 
1 16 -113 0 
1 115 29 0 
1 46 -47 0 
1 -144 -97 0 
1 65 97 0 
1 -9 115 0 
1 47 156 0 
1 -42 119 0 
1 63 -35 0 
1 -129 -100 0 
1 -10 -25 0 
1 142 -139 0 
1 44 106 0 
1 44 129 0 
1 -149 -33 0 
1 -91 136 0 
1 -25 147 0 
1 -38 47 0 
1 -48 139 0 
1 -128 -64 0 
1 -129 42 0 
1 -34 4 0 
1 -67 -158 0 
1 76 87 0 
1 127 55 0 
1 -122 51 0 
1 -55 84 0 
1 -78 -41 0 
1 76 -75 0 
1 -83 -134 0 
1 60 137 0 
1 -1 6 0 
1 -46 -127 0 
1 -77 -79 0 
1 69 38 0 
1 -31 127 0 
1 -47 -107 0 
1 26 -39 0 
1 -113 61 0 
1 83 118 0 
1 -60 -103 0 
1 -90 -10 0 
1 -141 104 0 
1 72 80 0 
1 -44 -24 0 
1 88 -18 0 
1 -45 -5 0 
1 -73 -44 0 
1 -157 121 0 
1 -39 124 0 
1 139 38 0 
1 -44 -33 0 
1 52 17 0 
1 -107 -102 0 
1 -42 30 0 
1 60 -141 0 
1 -149 134 0 
1 50 -122 0 
1 -73 71 0 
1 -47 -78 0 
1 -6 124 0 
1 127 55 0 
1 -78 -8 0 
1 123 128 0 
1 3 137 0 
1 108 76 0 
1 -34 -121 0 
1 -32 31 0 
1 -151 148 0 
1 -22 146 0 
1 -155 -109 0 
1 -32 -127 0 
1 -91 -97 0 
1 106 -67 0 
1 36 -72 0 
1 41 108 0 
1 96 123 0 
1 -124 -1 0 
1 118 14 0 
1 -59 -109 0 
1 -131 82 0 
1 -67 13 0 
1 67 -80 0 
1 147 103 0 
1 1 -77 0 
1 56 68 0 
1 -38 -76 0 
1 -130 42 0 
1 -35 -73 0 
1 15 140 0 
1 154 67 0 
1 -73 35 0 
1 74 67 0 
1 101 68 0 
1 -117 -77 0 
1 -25 83 0 
1 -84 136 0 
1 -119 -144 0 
1 123 -117 0 
1 116 105 0 
1 -105 9 0 
1 -76 -135 0 
1 -104 -7 0 
1 12 52 0 
1 -65 13 0 
1 125 -138 0 
1 -61 39 0 
1 -32 42 0 
1 -140 110 0 
1 -65 33 0 
1 -52 146 0 
1 -99 -26 0 
1 -50 67 0 
1 -11 -26 0 
1 107 19 0 
1 39 59 0 
1 -73 -53 0 
1 -10 61 0 
1 1 56 0 
1 -23 65 0 
1 -14 -4 0 
1 83 -36 0 
1 3 -67 0 
1 73 97 0 
1 -11 60 0 
1 -88 -104 0 
1 -12 129 0 
1 -8 43 0 
1 -100 87 0 
1 86 -72 0 
1 133 -147 0 
1 59 150 0 
1 121 48 0 
1 59 -6 0 
1 31 15 0 
1 157 101 0 
1 -72 39 0 
1 -76 -47 0 
1 90 -77 0 
1 -19 -21 0 
1 -40 -47 0 
1 113 -140 0 
1 -121 -97 0 
1 -69 -126 0 
1 137 100 0 
1 -70 98 0 
1 136 -23 0 
1 -139 109 0 
1 147 124 0 
1 -4 11 0 
1 20 71 0 
1 -149 -118 0 
1 -106 24 0 
1 -14 -94 0 
1 -108 22 0 
1 -6 35 0 
1 -59 46 0 
1 21 24 0 
1 -116 95 0 
1 -115 56 0 
1 73 -88 0 
1 129 63 0 
1 129 17 0 
1 63 102 0 
1 129 57 0 
1 -71 4 0 
1 -138 77 0 
1 29 133 0 
1 -148 -70 0 
1 -1 -20 0 
1 50 127 0 
1 113 155 0 
1 150 39 0 
1 117 -86 0 
1 -43 87 0 
1 110 97 0 
1 -77 12 0 
1 -19 1 0 
1 64 107 0 
1 -135 -145 0 
1 24 65 0 
1 45 -10 0 
1 129 29 0 
1 17 -19 0 
1 100 83 0 
1 151 -115 0 
1 21 13 0 
1 -153 -147 0 
1 -45 143 0 
1 155 32 0 
1 -103 -93 0 
1 -60 24 0 
1 -29 97 0 
1 -83 89 0 
1 26 137 0 
1 64 101 0 
1 -104 116 0 
1 -51 30 0 
1 -120 48 0 
